2 2 2 2 2 2 2 2 2
10 90 16 78 1 2 3 100 1000
0 0 0 0 0 0 0 0 0
1 3 3 5 3 3 9 3 3
69 804 872 531 431 698 692 480 859
1 2 3 4 5 6 7 8 9 
1000 200 1500 350 5000 1000 1000 2000 13000 
5 10 5 20 10 5 10 20 10 
60 20 1000 1000 60 20 10000 20 500 
20 1000 50 2000 50 500 1500 20 3000 
20 1000 50 2000 50 5000 1500 20 30
